15 40
25
2 11 5 10
3 2 7 4
7 10 0 30
4 8 11 32
5 9 2 21
2 7 0 23
1 4 0 0
1 6 0 4
5 4 5 0
3 8 2 13
3 1 10 5
5 5 10 0
1 3 0 10
4 12 11 20
2 6 13 8
4 2 1 0
4 11 1 2
2 10 0 13
2 3 13 5
2 11 11 6
4 3 11 17
4 26 7 6
4 8 7 32
2 3 13 14
2 6 5 4
% time elapsed: 219.21 s
% time elapsed: 219.21 s
%%%mzn-stat: initTime=0.000405
%%%mzn-stat: solveTime=219.116
%%%mzn-stat: solutions=67
%%%mzn-stat: variables=51
%%%mzn-stat: propagators=30
%%%mzn-stat: propagations=92086228
%%%mzn-stat: nodes=28501532
%%%mzn-stat: failures=14189451
%%%mzn-stat: restarts=9084
%%%mzn-stat: peakDepth=89
%%%mzn-stat-end
